c Source: TUDataset AIDS, graph #1619
c Original: n=7, m=8
c Augmented: +1 edges, n=7 -> m=9, circuit_rank=3
c Augmented to satisfy Eulerian condition (no parallel edges)
p sp 7
e 2 5
e 3 6
e 1 4
e 4 7
e 1 3
e 5 7
e 1 2
e 5 6
e 1 5
